(set-info :smt-lib-version 2.6)
(set-logic QF_S)
(set-info :source |
Generated by: Shaoke Cui
Generated on: 2025-04-10
Application: Using String Solvers to solve string matching problems
Target solver: Z3, Z3alpha, Z3-noodler
Benchmarks for string matching problem with wildcards, which needs to determine whether two strings containing two wildcards can match.
Use re.allchar and (re.* re.allchar) to represent wildcards.
Determine whether the two strings match by judging whether the result of re.inter is re.none.
|)
(set-info :license "https://creativecommons.org/licenses/by/4.0/")
(set-info :category "crafted")
(set-info :status unknown)
(assert (= re.none (re.inter  (re.++ (str.to_re "yhmubhecabqcqgnookwqyeloygycdzfuxzspqrrvxeucchhsbbczrqoptnoup") re.allchar (str.to_re "eu") re.allchar (str.to_re "jmybsjzo") (re.* re.allchar) (str.to_re "scqqsmgkklqvrvzjotmctakuvtlhun") (re.* re.allchar) (re.* re.allchar) (str.to_re "wfi") re.allchar (str.to_re "xqzgwuvsb") (re.* re.allchar) (str.to_re "khoyjd") (re.* re.allchar) (str.to_re "qkuyzvv") (re.* re.allchar) (str.to_re "mtowmopjcw") (re.* re.allchar) (str.to_re "zhdbk") (re.* re.allchar) (str.to_re "lziskksnrtgjqovoirudpmqrtvgrg") (re.* re.allchar) (str.to_re "rtxmntndreoysrggveegc") re.allchar (str.to_re "ld") re.allchar (str.to_re "pvjxuscvkavzccbxddgai") re.allchar (str.to_re "owaqgmcs") (re.* re.allchar) (str.to_re "ikfoexmjexnv") (re.* re.allchar) (str.to_re "wifodhqtub") re.allchar (str.to_re "jy") re.allchar (str.to_re "bbuv") (re.* re.allchar) (str.to_re "dyqidsdfm") (re.* re.allchar) (str.to_re "dkrrsnxbxtzojqcbmkwlhpziaclsub") (re.* re.allchar) re.allchar (str.to_re "fcydgvgmqdio") re.allchar (str.to_re "veslhshamdle") re.allchar (str.to_re "nylrlzw") (re.* re.allchar) (str.to_re "hcybsayzgqmwg") (re.* re.allchar) (str.to_re "zyvvqefnkysgnaarxcbsbzhqe") (re.* re.allchar) (str.to_re "tvcfpacxrvguxzwymmdnlzttikzocsmpvkozhscib") re.allchar (str.to_re "cuqygcdogdqhwypdquotogoqlqfut") (re.* re.allchar) (str.to_re "xqmm") (re.* re.allchar) (str.to_re "ynllgigrwbpfkgyllseyjkpmrfvvwtvymfevmwm") (re.* re.allchar) (str.to_re "gqedskaecakcgzttvfhexaiizdevpopyzrgivbobffwzrxajfd") (re.* re.allchar) (str.to_re "bkiljujr") re.allchar (str.to_re "cm") (re.* re.allchar) (str.to_re "gnytpayta") re.allchar (str.to_re "lfla") (re.* re.allchar) (str.to_re "jeiurgfpmyfkne") re.allchar (str.to_re "rahzbrlsqcwbkkr") (re.* re.allchar) (str.to_re "m") re.allchar (re.* re.allchar) (str.to_re "tksdnmnd") re.allchar (str.to_re "um") re.allchar (str.to_re "gmhqnpccfbd") re.allchar (str.to_re "fcsrtsjhmkoebssz") (re.* re.allchar) (re.* re.allchar) (str.to_re "jdtrgii") (re.* re.allchar) (str.to_re "ldllopnoggcvcswrglcxsqnjzzgsdmxprdfefhxmamodlaysgqy") re.allchar (str.to_re "z") (re.* re.allchar) (str.to_re "sjdrpbcexewjebtdbfyfcyunlztirseigbaxcsnmid") (re.* re.allchar) (str.to_re "zefkrndecwuqjecbatnkun") (re.* re.allchar) (str.to_re "ktn") (re.* re.allchar) (str.to_re "js") (re.* re.allchar) (str.to_re "pl") re.allchar (str.to_re "nostegygaepfhodchaylbxf") re.allchar (str.to_re "sajhjpssrqobqmydikuz") (re.* re.allchar) (str.to_re "xznonsdswdexppoxejcudplqnaxiyqbqurwhwcspbwfxncefoteryhijkumjzfdcuewyymksmkaiahmts") re.allchar re.allchar (str.to_re "u") (re.* re.allchar) (str.to_re "rqdoyxebqh") (re.* re.allchar) (str.to_re "vboovrtgyomzgu") (re.* re.allchar) (str.to_re "irqgrulnqvmcrmwpmm") (re.* re.allchar) (re.* re.allchar) (str.to_re "kncuzcmvzieaiofug") (re.* re.allchar) re.allchar (str.to_re "nvfulfrlqfqsljrqazqoovuylyiuhdz") re.allchar (str.to_re "ckyabnmvml") re.allchar (str.to_re "trzfedexkefh") (re.* re.allchar) (str.to_re "ybjxauohpqw") (re.* re.allchar) (str.to_re "vlosgnoybceveegulfnf") (re.* re.allchar) (str.to_re "wcjbudmlja") (re.* re.allchar) (str.to_re "d") (re.* re.allchar) (str.to_re "dysig") (re.* re.allchar) (str.to_re "xhklqadauedml") re.allchar (str.to_re "dicyoh") re.allchar (str.to_re "bqfsqvnkccffgvhpnn") (re.* re.allchar) (str.to_re "kqcwxxf") (re.* re.allchar) (str.to_re "rfjlzzfjoeetgsjevnblaezadubv") re.allchar (str.to_re "amj") re.allchar re.allchar (str.to_re "khububyoahco") (re.* re.allchar) (str.to_re "gttqlh") (re.* re.allchar) (str.to_re "bphsylvri") (re.* re.allchar) (str.to_re "ruvtycpiprqel") (re.* re.allchar) (str.to_re "cad") re.allchar (str.to_re "pxybjigvae") re.allchar (str.to_re "xldkr") (re.* re.allchar) (str.to_re "yirdny") re.allchar (str.to_re "gqwge") (re.* re.allchar) (str.to_re "sxztlqjtf") re.allchar re.allchar (str.to_re "ozxmhxbjoyk") re.allchar (str.to_re "gmvwqikirkjkpkdswxbbgynmhbiegqoplf") re.allchar (str.to_re "mu") (re.* re.allchar) (str.to_re "nif") re.allchar (str.to_re "pxhba") (re.* re.allchar) (str.to_re "ywahzpdtaxyo") re.allchar re.allchar (str.to_re "nnj") re.allchar (str.to_re "zqdwnqrljtocvbgissptclxjs") re.allchar (str.to_re "mu") (re.* re.allchar) (str.to_re "hqaijtgvtbmvhlvsxdkyuhgwfpn") (re.* re.allchar) (str.to_re "tdbfdjpxpavasjamdkbzvocnvgvlpipsggvwsbhhwg") (re.* re.allchar) (str.to_re "s") (re.* re.allchar) (str.to_re "uc") (re.* re.allchar) (str.to_re "uztaskkvgrvofqilftymqbpbodqnduqlubdnprmbajnshfqgwsyxjuidggmfmjiqfb") (re.* re.allchar) (str.to_re "tkagwfpzowwygt") (re.* re.allchar) (str.to_re "gtijdwwftabxfnh") (re.* re.allchar) (str.to_re "yuzlw") re.allchar re.allchar (str.to_re "iwvl") re.allchar (str.to_re "owbcv") (re.* re.allchar) (str.to_re "cxlrclnkaimm") re.allchar (str.to_re "ypiufbozm") (re.* re.allchar) (str.to_re "iybalonspemgmogvqgbxnuxhhsbveeegym") (re.* re.allchar) (str.to_re "iy") re.allchar (str.to_re "vpcdvajvimsuqxgubdlvhywdkjbkilhg") re.allchar (str.to_re "sgyrggllteoajij") (re.* re.allchar) (str.to_re "qxvflszxoejqfqxxkc") (re.* re.allchar) (str.to_re "bgtnfnmgzojlsm") (re.* re.allchar) (str.to_re "pheoqva") (re.* re.allchar) (str.to_re "tzfuqanhp") re.allchar (str.to_re "xacuuimycufij") re.allchar (re.* re.allchar) (str.to_re "njs") (re.* re.allchar) (str.to_re "drqjwzqhjdcputzni") (re.* re.allchar) (str.to_re "jqcsbzm") (re.* re.allchar) (str.to_re "sektidnlmifgjjyercrtsspmhanribgmrssiifwndajhosytzmqvwbafigpulmryyk") (re.* re.allchar) (str.to_re "tqtxvdaqpyqkvgaisti") re.allchar (str.to_re "dnrc") (re.* re.allchar) (str.to_re "csvceocteqpchxegx") re.allchar (str.to_re "xdpzzpiu") (re.* re.allchar) (str.to_re "zlvmfxidjfazyfiokqbw") (re.* re.allchar) (str.to_re "ilaegxctauvlwvrepdqviry") re.allchar (str.to_re "gpkevjrarhuyaqcaldkiuboi") re.allchar (str.to_re "e") re.allchar (str.to_re "s") re.allchar (str.to_re "shg") (re.* re.allchar) (str.to_re "wwlsn") (re.* re.allchar) (str.to_re "xhfamtgdzswzocxukks") (re.* re.allchar) (str.to_re "bmldaxygv") (re.* re.allchar) (str.to_re "ahsncfxzbju") re.allchar (str.to_re "wmoevyybzkebudbmosin") (re.* re.allchar) (re.* re.allchar) (str.to_re "gliviqbhqrpnncpyaahgsxrsbujcrtktl") (re.* re.allchar) (str.to_re "wybhqjbw") re.allchar (str.to_re "jmudiu") re.allchar (str.to_re "ijgvhnmxf") re.allchar (str.to_re "i") re.allchar (str.to_re "ucafjelvh") (re.* re.allchar) re.allchar (str.to_re "fnvsmmogd") re.allchar (str.to_re "hzhwojldvltllm") (re.* re.allchar) (str.to_re "dy") (re.* re.allchar) (str.to_re "pdhthtpgekxlmasvskbtycdorrbbklsxjgq") re.allchar (str.to_re "umz") re.allchar (str.to_re "obpodpcmmmlfedp") (re.* re.allchar) (str.to_re "shekbiuomryuetaxrlgioilakrhh") re.allchar (str.to_re "a") (re.* re.allchar) (str.to_re "aslv") (re.* re.allchar) (str.to_re "me") (re.* re.allchar) (str.to_re "j") (re.* re.allchar) (str.to_re "lthd") (re.* re.allchar) (str.to_re "bnojmpfcp") re.allchar (re.* re.allchar) (str.to_re "jmsxqsgabelradxwebnnmsdjng") re.allchar (str.to_re "xbuiivapvdpfwivjav") re.allchar (str.to_re "txnrzjkjfxarltnlmecacsmxtjvxmwmzvnaugbfkptasrf") re.allchar (str.to_re "cngg") (re.* re.allchar) (str.to_re "sqyeal") (re.* re.allchar) (str.to_re "pexpqvcsfutocjbzebbavlhdxutoxnqzbj") (re.* re.allchar) (str.to_re "bibepyrzlaxrxhvdnfkzuntdmcumpmwusdmwaie") re.allchar (str.to_re "sgnjwoq") re.allchar (str.to_re "bysml") re.allchar (str.to_re "vncnesgh") re.allchar (str.to_re "hzqaqc") re.allchar (str.to_re "bqkczhn") (re.* re.allchar) (str.to_re "pltoaiemwpak") re.allchar (re.* re.allchar) (str.to_re "okpxsyacmvvzutvbslt") (re.* re.allchar) (str.to_re "omflykhwlzylfjglrmlreccqxhdfevqppmkehkbrtfkw") re.allchar (str.to_re "ihcvllmmdeeuqpxup") (re.* re.allchar) (str.to_re "mjotryknu") re.allchar (str.to_re "zcycjqwrhggv") (re.* re.allchar) (str.to_re "mcgxzucfrftkbmerujhhuxsximd") re.allchar (str.to_re "ke") re.allchar (str.to_re "rzd") (re.* re.allchar) (str.to_re "ugzmneawlojmsftxugdeht") (re.* re.allchar) (str.to_re "bahjl") re.allchar (str.to_re "llwvymoehgsdg") (re.* re.allchar) (str.to_re "upjijez") re.allchar (str.to_re "nodquwsv") (re.* re.allchar) (str.to_re "nkq") (re.* re.allchar) (str.to_re "utomreywwobgkox") (re.* re.allchar) (str.to_re "fhrqv") re.allchar (str.to_re "bbshhyseuxyljkilfoef") (re.* re.allchar) (str.to_re "vcakjhsmvgridlppuweom") (re.* re.allchar) (str.to_re "qlflzytnwuoplmihurouvwlkaubkfpkednbawmw") re.allchar (str.to_re "kxmsg") (re.* re.allchar) (str.to_re "jkpjf") (re.* re.allchar) (str.to_re "tfyzmlpsukiz") (re.* re.allchar) (str.to_re "knfrxrdsjjxzctnxjovbzgtb") (re.* re.allchar) (str.to_re "qmutywaz") re.allchar (str.to_re "sjnx") (re.* re.allchar) (str.to_re "efibquxthwum") re.allchar (str.to_re "hsky") )   (re.++ (str.to_re "lqaizkmrhissneyladddlfrqjbmskwpidfqmbjtf") re.allchar (str.to_re "pisiozdll") re.allchar (str.to_re "bfgxqdgxvyqxfqxgggubulgwfnz") re.allchar (str.to_re "elfoek") (re.* re.allchar) re.allchar (str.to_re "gaxabcntkp") re.allchar (str.to_re "tplokskxtpgkwrywngxnnqdzkufmqzn") (re.* re.allchar) (str.to_re "rzycrcikqnyljgmwnvf") (re.* re.allchar) (str.to_re "pqozjas") (re.* re.allchar) (str.to_re "w") re.allchar (str.to_re "yqdeihndrcexhnsbqlu") re.allchar (str.to_re "zvstmeasyxstprwferpfvjzwnjbmohszlzbcs") re.allchar (str.to_re "sgkpozvkjkeyvlizbhnhinfn") (re.* re.allchar) (str.to_re "znzhddlcdheo") (re.* re.allchar) (str.to_re "wu") re.allchar (str.to_re "tlip") re.allchar (str.to_re "uor") (re.* re.allchar) (str.to_re "xnic") re.allchar (str.to_re "ma") (re.* re.allchar) (str.to_re "ced") (re.* re.allchar) (str.to_re "iblhwhdyfqcrzjkzzrvrryzczjlpieygcmzwjkodqjjvgqusfbwqodkagggqy") (re.* re.allchar) (str.to_re "tdyrgojclzwmov") re.allchar (str.to_re "pxdwliyh") (re.* re.allchar) (str.to_re "as") re.allchar (str.to_re "xjengtvqz") re.allchar (str.to_re "ubshnenxvjwepxsfrue") re.allchar (str.to_re "urvrymrjtbtpj") (re.* re.allchar) re.allchar (str.to_re "vderkkdvhchhsaeimlebhhdomsrseddfxoi") re.allchar (str.to_re "y") re.allchar (str.to_re "uiuqa") re.allchar (str.to_re "pvblufscisooqtr") (re.* re.allchar) (str.to_re "lknyoqfeausfaizzap") re.allchar (str.to_re "jstaopsbthc") re.allchar (str.to_re "xjmbqjfunbahnqflipps") (re.* re.allchar) (str.to_re "koq") (re.* re.allchar) (str.to_re "zuyjqqwmzfmbnsoykl") (re.* re.allchar) (str.to_re "fr") (re.* re.allchar) (str.to_re "vzfwlurgyxoi") (re.* re.allchar) (str.to_re "ga") re.allchar (str.to_re "oz") (re.* re.allchar) (str.to_re "k") re.allchar (str.to_re "zpxsuzeik") re.allchar (str.to_re "mcxz") re.allchar (str.to_re "kmqzozcjeprovrwnsjhklw") (re.* re.allchar) (str.to_re "esycmyyluoxjmckmxrwqfuyclbbzo") re.allchar re.allchar (str.to_re "vesiqocyccbjscuzywwnqbcmqlbtsyclstaesovkgm") (re.* re.allchar) (str.to_re "xnjauxvslmb") re.allchar (str.to_re "uneyxrksirkhyazcla") (re.* re.allchar) (str.to_re "vs") re.allchar (str.to_re "mymajdwozriudkkjhhiceckkzcvig") (re.* re.allchar) (str.to_re "begeuprtnhisfrbasfpv") re.allchar (str.to_re "qlyuclzb") (re.* re.allchar) (str.to_re "nbbrflvrxzxpzjg") re.allchar (str.to_re "rla") (re.* re.allchar) (str.to_re "pgltbrbrwyfiemjnischxbnlhuhcepjpfcwtbuhyfapoxjivtzzkwkdnljiwybmokbgvziixvcrbqegk") (re.* re.allchar) (str.to_re "kwetmo") re.allchar (str.to_re "uqybbfzdia") (re.* re.allchar) (str.to_re "elmbxbpuxqraaxiwg") re.allchar (str.to_re "tqucpvykzteszcxhfhx") (re.* re.allchar) (str.to_re "oqvdgvht") (re.* re.allchar) (str.to_re "mkli") (re.* re.allchar) (str.to_re "x") re.allchar (str.to_re "siyqvg") (re.* re.allchar) (str.to_re "midshkzdkzuuwhdwlnxf") (re.* re.allchar) (str.to_re "iqqqxe") re.allchar (str.to_re "kqignaeye") re.allchar (str.to_re "zihjlpbrtiomlqqyli") re.allchar (str.to_re "olpschd") re.allchar (str.to_re "rsonbanyu") (re.* re.allchar) (str.to_re "trjjvkjlzhtsmw") re.allchar (str.to_re "etchzcvccsqkokksifpcvimqo") re.allchar (str.to_re "xnapu") (re.* re.allchar) (str.to_re "whpasfcs") (re.* re.allchar) (str.to_re "g") re.allchar (str.to_re "crgfyxshjhtzqhawwjjqqnjwenh") re.allchar (str.to_re "p") re.allchar (str.to_re "dlbgmuolyn") (re.* re.allchar) (str.to_re "vdgcecahkprvrnax") (re.* re.allchar) (str.to_re "t") re.allchar (str.to_re "gmmubbrhevjhbgrsozssi") re.allchar (str.to_re "ybbwhsdddsynwkmupkruecviudabuz") (re.* re.allchar) (str.to_re "djxn") re.allchar (str.to_re "ihjipr") (re.* re.allchar) (str.to_re "snqkenmjodphdbgxdaktkxga") (re.* re.allchar) re.allchar (str.to_re "pvw") re.allchar (re.* re.allchar) (str.to_re "nas") (re.* re.allchar) (str.to_re "b") re.allchar (str.to_re "wj") (re.* re.allchar) (str.to_re "wdofwduxtadryczabwdccrwbw") (re.* re.allchar) (str.to_re "t") (re.* re.allchar) (str.to_re "xhd") re.allchar (str.to_re "rnfd") re.allchar (str.to_re "abk") re.allchar (str.to_re "a") (re.* re.allchar) (str.to_re "fephp") (re.* re.allchar) (str.to_re "lod") re.allchar (str.to_re "vwuibfwog") re.allchar (str.to_re "dzyrvidghqqw") re.allchar (str.to_re "sknnlyjzoyiffbatzd") re.allchar (str.to_re "dbvkohbhvyxduvbma") re.allchar (str.to_re "auxr") re.allchar (str.to_re "na") (re.* re.allchar) (str.to_re "zw") re.allchar (str.to_re "hkfpjbmatd") (re.* re.allchar) (str.to_re "xkhxirtwaftcvedkrcodhftsfhcateikkzmnnsqdi") (re.* re.allchar) (str.to_re "rx") (re.* re.allchar) (str.to_re "qua") (re.* re.allchar) (str.to_re "dchnic") (re.* re.allchar) (str.to_re "ttt") (re.* re.allchar) (str.to_re "xonkyzevlpogodkpqgjegjqhmepmyjrldjrmlyoe") (re.* re.allchar) (str.to_re "hkhsdphjimsw") re.allchar (str.to_re "wovmp") (re.* re.allchar) (str.to_re "qbuopbbihwfw") re.allchar (str.to_re "w") re.allchar (str.to_re "vbnipoymmwhitpuqe") re.allchar (str.to_re "lukudowzsqw") (re.* re.allchar) (str.to_re "lllinrdjjoumaic") re.allchar (str.to_re "vbtvjjnkkdtwxbvtrmwjd") re.allchar (str.to_re "jzlylqhmthfdhtsilkpfacjtgxhdbpp") (re.* re.allchar) (str.to_re "atwaweg") (re.* re.allchar) (str.to_re "vkmi") re.allchar (str.to_re "tysxlvaqqetemptztu") re.allchar (str.to_re "tmgg") re.allchar re.allchar (str.to_re "ka") (re.* re.allchar) (str.to_re "l") re.allchar (str.to_re "tfxwyc") (re.* re.allchar) re.allchar (str.to_re "d") (re.* re.allchar) (str.to_re "yxhdlavfwr") re.allchar (str.to_re "tclfgeky") (re.* re.allchar) (str.to_re "mjwwupexbg") (re.* re.allchar) (str.to_re "plyfsqjoupqi") (re.* re.allchar) (re.* re.allchar) (str.to_re "y") (re.* re.allchar) (str.to_re "d") (re.* re.allchar) (str.to_re "vurwmmmscqazfl") (re.* re.allchar) (str.to_re "tdqhtdleshdghbykvawsbowrioownyxslhei") re.allchar re.allchar (str.to_re "dehiquvwchfhdpzrcgejjemvpuiwgzf") (re.* re.allchar) (str.to_re "vzc") re.allchar (str.to_re "mowmudnqtaqhfnrtmuxi") (re.* re.allchar) (str.to_re "utmjazlia") (re.* re.allchar) (str.to_re "uakhd") (re.* re.allchar) (str.to_re "l") (re.* re.allchar) (str.to_re "qtteqcontfkwtbuhcajagqgaprxyt") re.allchar (str.to_re "t") (re.* re.allchar) re.allchar (str.to_re "kwsamjypiu") re.allchar (str.to_re "knudrxgcoiwboyit") (re.* re.allchar) (str.to_re "cssmdhbxtgpi") (re.* re.allchar) (str.to_re "gi") re.allchar (str.to_re "igr") (re.* re.allchar) (str.to_re "xklhv") (re.* re.allchar) (str.to_re "udpnpi") (re.* re.allchar) (str.to_re "npyyhopkkynrshep") (re.* re.allchar) (str.to_re "uzxhc") (re.* re.allchar) (str.to_re "deqvzb") re.allchar (str.to_re "dbjqdnqu") re.allchar (str.to_re "aknbtafopajlbsylvvjllmftavnpgunsk") re.allchar (str.to_re "myhjz") (re.* re.allchar) (str.to_re "unjurtbkmzxtxoa") re.allchar (str.to_re "bdbiguwvolmrtduu") (re.* re.allchar) (str.to_re "ckvaxfpaglxapcyukgpw") (re.* re.allchar) (str.to_re "rotdkg") (re.* re.allchar) (str.to_re "rhjegog") (re.* re.allchar) (str.to_re "nkgbcpftkblyjmel") (re.* re.allchar) (str.to_re "svujrrf") re.allchar (str.to_re "gqq") (re.* re.allchar) (str.to_re "tdmlfcy") (re.* re.allchar) (str.to_re "mnlw") (re.* re.allchar) (str.to_re "lfi") (re.* re.allchar) (str.to_re "bzktebvyrhptfwcbstmypzrsjntxxslalyt") (re.* re.allchar) (str.to_re "jgolhqs") (re.* re.allchar) (str.to_re "acnjspnzwczjjgaswtw") (re.* re.allchar) (str.to_re "wcu") (re.* re.allchar) (re.* re.allchar) (str.to_re "mraqi") (re.* re.allchar) (str.to_re "gwirrbnmo") re.allchar (str.to_re "ef") (re.* re.allchar) (str.to_re "wsfrxoq") (re.* re.allchar) (str.to_re "mrdiqub") re.allchar (str.to_re "yyczdxnxwke") re.allchar (str.to_re "rhpaq") (re.* re.allchar) (str.to_re "pyz") re.allchar (str.to_re "blyhclwowjinfbwechqwdisnjfbxptdboscspdkoddsd") re.allchar (re.* re.allchar) (str.to_re "zzxcsbfppqinntq") re.allchar (str.to_re "y") (re.* re.allchar) (str.to_re "jzbom") (re.* re.allchar) (str.to_re "vpsgtvrfxvficuidclzbutggrahhxr") re.allchar (str.to_re "body") re.allchar (str.to_re "iwciukzvkwvqsfjklvrcmdd") (re.* re.allchar) (str.to_re "ucogsmgnnfwqzrj") (re.* re.allchar) (str.to_re "r") re.allchar (str.to_re "ozgiozucwlxgvcklnfhjoniznhklhkqlcfifcsvhdfolnbkzpwnqitlqujfmezgtkosboblrbjimb") (re.* re.allchar) (str.to_re "dgmbklumfwajpjcgjeyezyzuhnnmeqmpcxq") (re.* re.allchar) (str.to_re "tootjlnoa") re.allchar re.allchar (str.to_re "gombvzoqejmu") (re.* re.allchar) (str.to_re "ldddyowon") re.allchar (re.* re.allchar) (str.to_re "ggrdmguaikacpyttskzee") (re.* re.allchar) (str.to_re "ashyunhhiktno") re.allchar (str.to_re "ecopnxoogunocwnuqs") (re.* re.allchar) (str.to_re "xojuznhrvdpqjaqe") (re.* re.allchar) (re.* re.allchar) (str.to_re "yykhzmdrkedcmbyqrjj") (re.* re.allchar) (re.* re.allchar) (str.to_re "pdph") (re.* re.allchar) (str.to_re "ockwenizapovmkasthhweozzkkg") (re.* re.allchar) (str.to_re "lb") (re.* re.allchar) (str.to_re "tmaooee") re.allchar (str.to_re "awqhlnwhqwkbxjlv") re.allchar (str.to_re "ysbzhafezywiwdzdijvi") re.allchar (str.to_re "ijktzvsbr") (re.* re.allchar) (str.to_re "zngeyywtykhviuudnwpsclobasiclhnvn") re.allchar (str.to_re "q") (re.* re.allchar) (str.to_re "vju") (re.* re.allchar) (str.to_re "q") re.allchar (str.to_re "szn") (re.* re.allchar) (str.to_re "jqtfegrvxerkywdzlgvohreckjhay") (re.* re.allchar) (str.to_re "ruxo") re.allchar (str.to_re "s") (re.* re.allchar) (str.to_re "rxxplimf") re.allchar (str.to_re "gbtwteutopjrncekjcgcghgdcaf") re.allchar (str.to_re "febyiyjfzfkkgud") (re.* re.allchar) re.allchar (str.to_re "xtddnmisqskieymlnlstfmhrxnhrrmrtmuxyjky") (re.* re.allchar) (str.to_re "gjjxhltnzgouwkhuurpiyayglkbjnoyuhdnjbubowatuduryqzbipfib") re.allchar re.allchar (str.to_re "eic") (re.* re.allchar) (str.to_re "ztbvgzgibjuubymauewqw") re.allchar (str.to_re "gcdjfpxqlkqorkeggwj") (re.* re.allchar) (str.to_re "fdhn") re.allchar (str.to_re "gfyzsikhubueni") (re.* re.allchar) (str.to_re "o") (re.* re.allchar) (str.to_re "sehdusmmgqhafjwfetbwplgglercya") (re.* re.allchar) (str.to_re "schdhfiyk") (re.* re.allchar) (str.to_re "erj") re.allchar (str.to_re "tevhjkhcnblwvnscyradvatdzvzwpyzhskycxl") re.allchar (str.to_re "vlxiskxqqmenwdxogmhzqycsqfgeajekliqplvpvblaidugre") (re.* re.allchar) (str.to_re "atayco") re.allchar (str.to_re "zc") (re.* re.allchar) (str.to_re "n") (re.* re.allchar) (str.to_re "rrgxwriaquelddfqusfrxyoqdnzsohnqtddnibailsrvuulvrlkbwkvdrv") re.allchar (str.to_re "cnen") re.allchar (str.to_re "vekpaloqxnymb") (re.* re.allchar) (str.to_re "oqvwrloyioedu") re.allchar (str.to_re "jt") (re.* re.allchar) (str.to_re "erelizbfar") re.allchar (str.to_re "sdiwvhws") re.allchar (str.to_re "h") (re.* re.allchar) (str.to_re "sarnwvgjw") re.allchar (str.to_re "owqaapkxgtosdxtjmfednxrxbduthqmguiqadzcegi") (re.* re.allchar) (str.to_re "rbhnge") (re.* re.allchar) re.allchar (str.to_re "ebuvsew") (re.* re.allchar) (str.to_re "czrgrkwyjnvrruyq") (re.* re.allchar) (str.to_re "kusedwptulhznwdlkbuddtmzc") (re.* re.allchar) (str.to_re "kobkgclk") re.allchar (str.to_re "t") (re.* re.allchar) (str.to_re "u") (re.* re.allchar) (str.to_re "ypwjnpssdm") (re.* re.allchar) (str.to_re "vhwial") (re.* re.allchar) re.allchar (str.to_re "ibghqfosrvqtdqq") (re.* re.allchar) (str.to_re "mojnk") (re.* re.allchar) re.allchar (str.to_re "snbwwjtaeybq") (re.* re.allchar) (str.to_re "bnpl") re.allchar (str.to_re "pti") re.allchar (str.to_re "bd") (re.* re.allchar) (str.to_re "a") re.allchar (str.to_re "gkvjzsfmavarg") re.allchar (str.to_re "czewldnsxfjtprninb") (re.* re.allchar) (str.to_re "rpfunuca") re.allchar re.allchar (str.to_re "mow") (re.* re.allchar) (str.to_re "xyovdfaijogmfoslu") (re.* re.allchar) (str.to_re "bz") re.allchar (str.to_re "qgqrz") re.allchar (str.to_re "xbxrwfwlezsjydlmrfpyig") (re.* re.allchar) (str.to_re "jtt") (re.* re.allchar) (str.to_re "twcew") re.allchar (str.to_re "fuaswurtiagc") re.allchar (str.to_re "ef") re.allchar (re.* re.allchar) (str.to_re "ysfiyolbbrdduhvgrhimtvki") re.allchar (str.to_re "tomk") (re.* re.allchar) (str.to_re "yazbmvvsmzlzgap") (re.* re.allchar) (str.to_re "fikfyhttiqwjtzlziessdkokosuk") (re.* re.allchar) (str.to_re "so") re.allchar (str.to_re "rprl") re.allchar (str.to_re "xahfw") re.allchar (str.to_re "lzjc") )  )))
(check-sat)
(exit)
